p cnf 20 15
5 4 -15 -10 2 -1 -7 3 -14 -8 0
-8 6 2 14 -17 3 10 13 12 -1 0
1 -19 12 3 -7 18 -17 2 9 -8 0
-5 8 10 16 -9 -6 -3 -12 -11 -15 0
4 14 13 -11 -1 -17 -10 5 20 2 0
-17 -4 -3 18 9 12 1 -11 16 20 0
13 -16 8 3 -20 -17 19 4 1 12 0
9 19 2 1 14 12 10 -4 -6 -15 0
17 18 20 1 6 10 -12 -2 14 -4 0
-18 10 16 20 3 -4 -5 15 -13 7 0
7 -18 -11 9 -5 -6 -16 -17 -13 1 0
-4 -7 -8 13 -20 -5 -19 -6 15 -17 0
20 3 2 -15 11 -19 18 6 -1 13 0
-8 3 -1 -4 16 11 20 14 -7 5 0
-20 6 -12 5 3 8 -7 19 -1 11 0
